
(set-logic ALL) 

(declare-datatype MyList ((Nil) (Cons (head Real) (tail MyList)) )) 
(declare-fun l0 () MyList) 
(declare-fun l1 () MyList) 
(declare-fun l2 () MyList) 
(declare-fun l3 () MyList) 
(declare-fun i0 () Real) 
(declare-fun i1 () Real) 
(assert (and (= l3 Nil) (= l2 Nil) (= l3 Nil)) )
(assert (is-Cons Nil) )
(assert (or (is-Cons Nil) (= l2 l1) (= l2 Nil)) )
(assert (and (is-Cons Nil) (= l3 Nil)) )
(assert (is-Cons Nil) )
(assert (and (is-Nil Nil) (= l3 Nil) (is-Cons l0) (= l3 Nil)) )
(assert (is-Cons Nil) )
(assert (and (= l2 l1) (= l0 Nil) (= l0 Nil) (= l3 Nil)) )
(check-sat)
